50
120
97
96
94
94
93
80
79
78
77
77
76
76
72
72
71
70
67
67
63
60
59
55
54
52
51
49
48
47
46
43
34
32
28
27
27
26
25
23
22
20
17
14
13
12
12
10
5
4
3
2
